p tw 53 109
5 7
5 14
5 51
10 21
10 13
10 12
10 19
1 18
1 17
1 24
1 3
1 23
1 12
1 13
6 16
6 21
2 21
2 5
2 15
2 11
2 3
2 7
2 4
2 19
8 13
8 21
4 12
42 46
42 44
37 49
37 48
25 52
52 53
14 24
46 48
46 47
29 39
29 33
29 42
29 47
33 43
28 46
28 50
28 37
28 33
28 41
38 39
9 16
9 19
13 53
13 18
41 49
41 51
45 47
17 24
17 21
32 46
32 34
32 50
32 43
32 44
34 40
34 38
44 52
27 45
27 46
27 31
27 42
27 32
27 50
12 23
49 53
7 12
7 19
7 24
7 25
39 41
39 48
39 50
39 43
3 8
3 13
3 19
3 25
3 10
3 21
35 47
35 36
35 50
35 37
35 45
18 20
18 21
18 19
16 25
31 50
31 43
31 40
11 23
26 50
26 35
36 50
30 31
30 41
51 52
51 53
47 49
15 22
15 18
